 0
 0
 0
 0
 0
18
26
11
30
21
19
15
16
29
26
37
16
12
31
 8
19
20
13
15
22
28
12
 6
27
14
18
17
29
13
22
25
28
27
19
10
12
14
24
16
33
15
11
18
17
21
27
19
20
 5
22
12
19
22
16
 7
26
14
21
24
13
15
18
11
28
 9
37
30
10
 8
11
 3
 1
 6
10
20

